p cnf 460 941               
-7 -6 -16 0
16 -18 0
6 7 -17 0
17 -18 0
18 -31 0
-9 -8 -19 0
19 -21 0
8 9 -20 0
20 -21 0
21 -31 0
-11 -10 -22 0
22 -24 0
10 11 -23 0
23 -24 0
24 -31 0
-13 -12 -25 0
25 -27 0
12 13 -26 0
26 -27 0
27 -31 0
-15 -14 -28 0
28 -30 0
14 15 -29 0
29 -30 0
30 -31 0
-6 -32 0
7 -32 0
6 -7 32 0
-1 32 -33 0
1 -32 -33 0
32 -32 -33 0
33 -42 0
-8 -34 0
9 -34 0
8 -9 34 0
-2 34 -35 0
2 -34 -35 0
34 -34 -35 0
35 -42 0
-10 -36 0
11 -36 0
10 -11 36 0
-3 36 -37 0
3 -36 -37 0
36 -36 -37 0
37 -42 0
-12 -38 0
13 -38 0
12 -13 38 0
-4 38 -39 0
4 -38 -39 0
38 -38 -39 0
39 -42 0
-14 -40 0
15 -40 0
14 -15 40 0
-5 40 -41 0
5 -40 -41 0
40 -40 -41 0
41 -42 0
1 -46 0
-15 -43 0
-13 -43 0
-11 -43 0
-9 -43 0
-7 -43 0
43 -45 0
6 -44 0
8 -44 0
10 -44 0
12 -44 0
14 -44 0
44 -45 0
45 -46 0
2 -47 0
45 -47 0
3 -48 0
45 -48 0
4 -49 0
45 -49 0
5 -50 0
45 -50 0
1 -59 0
-14 -56 0
-13 -56 0
-11 -56 0
-9 -56 0
-7 -56 0
14 13 11 9 7 56 0
56 -58 0
6 -57 0
8 -57 0
10 -57 0
12 -57 0
15 -57 0
-6 -8 -10 -12 -15 57 0
57 -58 0
-56 -57 58 0
58 -59 0
2 -60 0
58 -60 0
3 -61 0
58 -61 0
4 -62 0
58 -62 0
-5 -58 63 0
-63 -68 0
58 -68 0
1 -72 0
-15 -69 0
-12 -69 0
-11 -69 0
-9 -69 0
-7 -69 0
15 12 11 9 7 69 0
69 -71 0
6 -70 0
8 -70 0
10 -70 0
13 -70 0
14 -70 0
-6 -8 -10 -13 -14 70 0
70 -71 0
-69 -70 71 0
71 -72 0
2 -73 0
71 -73 0
3 -74 0
71 -74 0
5 -76 0
71 -76 0
-4 -71 75 0
-75 -80 0
71 -80 0
1 -85 0
-14 -82 0
-12 -82 0
-11 -82 0
-9 -82 0
-7 -82 0
14 12 11 9 7 82 0
82 -84 0
6 -83 0
8 -83 0
10 -83 0
13 -83 0
15 -83 0
-6 -8 -10 -13 -15 83 0
83 -84 0
-82 -83 84 0
84 -85 0
2 -86 0
84 -86 0
3 -87 0
84 -87 0
-4 -84 88 0
-88 -93 0
84 -93 0
-5 -84 89 0
-89 -94 0
84 -94 0
1 -98 0
-15 -95 0
-13 -95 0
-10 -95 0
-9 -95 0
-7 -95 0
15 13 10 9 7 95 0
95 -97 0
6 -96 0
8 -96 0
11 -96 0
12 -96 0
14 -96 0
-6 -8 -11 -12 -14 96 0
96 -97 0
-95 -96 97 0
97 -98 0
2 -99 0
97 -99 0
4 -101 0
97 -101 0
5 -102 0
97 -102 0
-3 -97 100 0
-100 -105 0
97 -105 0
1 -111 0
-14 -108 0
-13 -108 0
-10 -108 0
-9 -108 0
-7 -108 0
14 13 10 9 7 108 0
108 -110 0
6 -109 0
8 -109 0
11 -109 0
12 -109 0
15 -109 0
-6 -8 -11 -12 -15 109 0
109 -110 0
-108 -109 110 0
110 -111 0
2 -112 0
110 -112 0
4 -114 0
110 -114 0
-3 -110 113 0
-113 -118 0
110 -118 0
-5 -110 115 0
-115 -120 0
110 -120 0
1 -124 0
-15 -121 0
-12 -121 0
-10 -121 0
-9 -121 0
-7 -121 0
15 12 10 9 7 121 0
121 -123 0
6 -122 0
8 -122 0
11 -122 0
13 -122 0
14 -122 0
-6 -8 -11 -13 -14 122 0
122 -123 0
-121 -122 123 0
123 -124 0
2 -125 0
123 -125 0
5 -128 0
123 -128 0
-3 -123 126 0
-126 -131 0
123 -131 0
-4 -123 127 0
-127 -132 0
123 -132 0
1 -137 0
-14 -134 0
-12 -134 0
-10 -134 0
-9 -134 0
-7 -134 0
14 12 10 9 7 134 0
134 -136 0
6 -135 0
8 -135 0
11 -135 0
13 -135 0
15 -135 0
-6 -8 -11 -13 -15 135 0
135 -136 0
-134 -135 136 0
136 -137 0
2 -138 0
136 -138 0
-3 -136 139 0
-139 -144 0
136 -144 0
-4 -136 140 0
-140 -145 0
136 -145 0
-5 -136 141 0
-141 -146 0
136 -146 0
1 -150 0
-15 -147 0
-13 -147 0
-11 -147 0
-8 -147 0
-7 -147 0
15 13 11 8 7 147 0
147 -149 0
6 -148 0
9 -148 0
10 -148 0
12 -148 0
14 -148 0
-6 -9 -10 -12 -14 148 0
148 -149 0
-147 -148 149 0
149 -150 0
3 -152 0
149 -152 0
4 -153 0
149 -153 0
5 -154 0
149 -154 0
-2 -149 151 0
-151 -156 0
149 -156 0
1 -163 0
-14 -160 0
-13 -160 0
-11 -160 0
-8 -160 0
-7 -160 0
14 13 11 8 7 160 0
160 -162 0
6 -161 0
9 -161 0
10 -161 0
12 -161 0
15 -161 0
-6 -9 -10 -12 -15 161 0
161 -162 0
-160 -161 162 0
162 -163 0
3 -165 0
162 -165 0
4 -166 0
162 -166 0
-2 -162 164 0
-164 -169 0
162 -169 0
-5 -162 167 0
-167 -172 0
162 -172 0
1 -176 0
-15 -173 0
-12 -173 0
-11 -173 0
-8 -173 0
-7 -173 0
15 12 11 8 7 173 0
173 -175 0
6 -174 0
9 -174 0
10 -174 0
13 -174 0
14 -174 0
-6 -9 -10 -13 -14 174 0
174 -175 0
-173 -174 175 0
175 -176 0
3 -178 0
175 -178 0
5 -180 0
175 -180 0
-2 -175 177 0
-177 -182 0
175 -182 0
-4 -175 179 0
-179 -184 0
175 -184 0
1 -189 0
-14 -186 0
-12 -186 0
-11 -186 0
-8 -186 0
-7 -186 0
14 12 11 8 7 186 0
186 -188 0
6 -187 0
9 -187 0
10 -187 0
13 -187 0
15 -187 0
-6 -9 -10 -13 -15 187 0
187 -188 0
-186 -187 188 0
188 -189 0
3 -191 0
188 -191 0
-2 -188 190 0
-190 -195 0
188 -195 0
-4 -188 192 0
-192 -197 0
188 -197 0
-5 -188 193 0
-193 -198 0
188 -198 0
1 -202 0
-15 -199 0
-13 -199 0
-10 -199 0
-8 -199 0
-7 -199 0
15 13 10 8 7 199 0
199 -201 0
6 -200 0
9 -200 0
11 -200 0
12 -200 0
14 -200 0
-6 -9 -11 -12 -14 200 0
200 -201 0
-199 -200 201 0
201 -202 0
4 -205 0
201 -205 0
5 -206 0
201 -206 0
-2 -201 203 0
-203 -208 0
201 -208 0
-3 -201 204 0
-204 -209 0
201 -209 0
1 -215 0
-14 -212 0
-13 -212 0
-10 -212 0
-8 -212 0
-7 -212 0
14 13 10 8 7 212 0
212 -214 0
6 -213 0
9 -213 0
11 -213 0
12 -213 0
15 -213 0
-6 -9 -11 -12 -15 213 0
213 -214 0
-212 -213 214 0
214 -215 0
4 -218 0
214 -218 0
-2 -214 216 0
-216 -221 0
214 -221 0
-3 -214 217 0
-217 -222 0
214 -222 0
-5 -214 219 0
-219 -224 0
214 -224 0
1 -228 0
-15 -225 0
-12 -225 0
-10 -225 0
-8 -225 0
-7 -225 0
15 12 10 8 7 225 0
225 -227 0
6 -226 0
9 -226 0
11 -226 0
13 -226 0
14 -226 0
-6 -9 -11 -13 -14 226 0
226 -227 0
-225 -226 227 0
227 -228 0
5 -232 0
227 -232 0
-2 -227 229 0
-229 -234 0
227 -234 0
-3 -227 230 0
-230 -235 0
227 -235 0
-4 -227 231 0
-231 -236 0
227 -236 0
1 -241 0
-14 -238 0
-12 -238 0
-10 -238 0
-8 -238 0
-7 -238 0
14 12 10 8 7 238 0
238 -240 0
6 -239 0
9 -239 0
11 -239 0
13 -239 0
15 -239 0
-6 -9 -11 -13 -15 239 0
239 -240 0
-238 -239 240 0
240 -241 0
-2 -240 242 0
-242 -247 0
240 -247 0
-3 -240 243 0
-243 -248 0
240 -248 0
-4 -240 244 0
-244 -249 0
240 -249 0
-5 -240 245 0
-245 -250 0
240 -250 0
2 -255 0
-15 -251 0
-13 -251 0
-11 -251 0
-9 -251 0
-6 -251 0
15 13 11 9 6 251 0
251 -253 0
7 -252 0
8 -252 0
10 -252 0
12 -252 0
14 -252 0
-7 -8 -10 -12 -14 252 0
252 -253 0
-251 -252 253 0
253 -255 0
3 -256 0
253 -256 0
4 -257 0
253 -257 0
5 -258 0
253 -258 0
-1 -253 254 0
-254 -259 0
253 -259 0
2 -268 0
-14 -264 0
-13 -264 0
-11 -264 0
-9 -264 0
-6 -264 0
14 13 11 9 6 264 0
264 -266 0
7 -265 0
8 -265 0
10 -265 0
12 -265 0
15 -265 0
-7 -8 -10 -12 -15 265 0
265 -266 0
-264 -265 266 0
266 -268 0
3 -269 0
266 -269 0
4 -270 0
266 -270 0
-1 -266 267 0
-267 -272 0
266 -272 0
-5 -266 271 0
-271 -276 0
266 -276 0
2 -281 0
-15 -277 0
-12 -277 0
-11 -277 0
-9 -277 0
-6 -277 0
15 12 11 9 6 277 0
277 -279 0
7 -278 0
8 -278 0
10 -278 0
13 -278 0
14 -278 0
-7 -8 -10 -13 -14 278 0
278 -279 0
-277 -278 279 0
279 -281 0
3 -282 0
279 -282 0
5 -284 0
279 -284 0
-1 -279 280 0
-280 -285 0
279 -285 0
-4 -279 283 0
-283 -288 0
279 -288 0
2 -294 0
-14 -290 0
-12 -290 0
-11 -290 0
-9 -290 0
-6 -290 0
14 12 11 9 6 290 0
290 -292 0
7 -291 0
8 -291 0
10 -291 0
13 -291 0
15 -291 0
-7 -8 -10 -13 -15 291 0
291 -292 0
-290 -291 292 0
292 -294 0
3 -295 0
292 -295 0
-1 -292 293 0
-293 -298 0
292 -298 0
-4 -292 296 0
-296 -301 0
292 -301 0
-5 -292 297 0
-297 -302 0
292 -302 0
2 -307 0
-15 -303 0
-13 -303 0
-10 -303 0
-9 -303 0
-6 -303 0
15 13 10 9 6 303 0
303 -305 0
7 -304 0
8 -304 0
11 -304 0
12 -304 0
14 -304 0
-7 -8 -11 -12 -14 304 0
304 -305 0
-303 -304 305 0
305 -307 0
4 -309 0
305 -309 0
5 -310 0
305 -310 0
-1 -305 306 0
-306 -311 0
305 -311 0
-3 -305 308 0
-308 -313 0
305 -313 0
2 -320 0
-14 -316 0
-13 -316 0
-10 -316 0
-9 -316 0
-6 -316 0
14 13 10 9 6 316 0
316 -318 0
7 -317 0
8 -317 0
11 -317 0
12 -317 0
15 -317 0
-7 -8 -11 -12 -15 317 0
317 -318 0
-316 -317 318 0
318 -320 0
4 -322 0
318 -322 0
-1 -318 319 0
-319 -324 0
318 -324 0
-3 -318 321 0
-321 -326 0
318 -326 0
-5 -318 323 0
-323 -328 0
318 -328 0
2 -333 0
-15 -329 0
-12 -329 0
-10 -329 0
-9 -329 0
-6 -329 0
15 12 10 9 6 329 0
329 -331 0
7 -330 0
8 -330 0
11 -330 0
13 -330 0
14 -330 0
-7 -8 -11 -13 -14 330 0
330 -331 0
-329 -330 331 0
331 -333 0
5 -336 0
331 -336 0
-1 -331 332 0
-332 -337 0
331 -337 0
-3 -331 334 0
-334 -339 0
331 -339 0
-4 -331 335 0
-335 -340 0
331 -340 0
2 -346 0
-14 -342 0
-12 -342 0
-10 -342 0
-9 -342 0
-6 -342 0
14 12 10 9 6 342 0
342 -344 0
7 -343 0
8 -343 0
11 -343 0
13 -343 0
15 -343 0
-7 -8 -11 -13 -15 343 0
343 -344 0
-342 -343 344 0
344 -346 0
-1 -344 345 0
-345 -350 0
344 -350 0
-3 -344 347 0
-347 -352 0
344 -352 0
-4 -344 348 0
-348 -353 0
344 -353 0
-5 -344 349 0
-349 -354 0
344 -354 0
3 -360 0
-15 -355 0
-13 -355 0
-11 -355 0
-8 -355 0
-6 -355 0
15 13 11 8 6 355 0
355 -357 0
7 -356 0
9 -356 0
10 -356 0
12 -356 0
14 -356 0
-7 -9 -10 -12 -14 356 0
356 -357 0
-355 -356 357 0
357 -360 0
4 -361 0
357 -361 0
5 -362 0
357 -362 0
-1 -357 358 0
-358 -363 0
357 -363 0
-2 -357 359 0
-359 -364 0
357 -364 0
3 -373 0
-14 -368 0
-13 -368 0
-11 -368 0
-8 -368 0
-6 -368 0
14 13 11 8 6 368 0
368 -370 0
7 -369 0
9 -369 0
10 -369 0
12 -369 0
15 -369 0
-7 -9 -10 -12 -15 369 0
369 -370 0
-368 -369 370 0
370 -373 0
4 -374 0
370 -374 0
-1 -370 371 0
-371 -376 0
370 -376 0
-2 -370 372 0
-372 -377 0
370 -377 0
-5 -370 375 0
-375 -380 0
370 -380 0
3 -386 0
-15 -381 0
-12 -381 0
-11 -381 0
-8 -381 0
-6 -381 0
15 12 11 8 6 381 0
381 -383 0
7 -382 0
9 -382 0
10 -382 0
13 -382 0
14 -382 0
-7 -9 -10 -13 -14 382 0
382 -383 0
-381 -382 383 0
383 -386 0
5 -388 0
383 -388 0
-1 -383 384 0
-384 -389 0
383 -389 0
-2 -383 385 0
-385 -390 0
383 -390 0
-4 -383 387 0
-387 -392 0
383 -392 0
3 -399 0
-14 -394 0
-12 -394 0
-11 -394 0
-8 -394 0
-6 -394 0
14 12 11 8 6 394 0
394 -396 0
7 -395 0
9 -395 0
10 -395 0
13 -395 0
15 -395 0
-7 -9 -10 -13 -15 395 0
395 -396 0
-394 -395 396 0
396 -399 0
-1 -396 397 0
-397 -402 0
396 -402 0
-2 -396 398 0
-398 -403 0
396 -403 0
-4 -396 400 0
-400 -405 0
396 -405 0
-5 -396 401 0
-401 -406 0
396 -406 0
4 -413 0
-15 -407 0
-13 -407 0
-10 -407 0
-8 -407 0
-6 -407 0
15 13 10 8 6 407 0
407 -409 0
7 -408 0
9 -408 0
11 -408 0
12 -408 0
14 -408 0
-7 -9 -11 -12 -14 408 0
408 -409 0
-407 -408 409 0
409 -413 0
5 -414 0
409 -414 0
-1 -409 410 0
-410 -415 0
409 -415 0
-2 -409 411 0
-411 -416 0
409 -416 0
-3 -409 412 0
-412 -417 0
409 -417 0
4 -426 0
-14 -420 0
-13 -420 0
-10 -420 0
-8 -420 0
-6 -420 0
14 13 10 8 6 420 0
420 -422 0
7 -421 0
9 -421 0
11 -421 0
12 -421 0
15 -421 0
-7 -9 -11 -12 -15 421 0
421 -422 0
-420 -421 422 0
422 -426 0
-1 -422 423 0
-423 -428 0
422 -428 0
-2 -422 424 0
-424 -429 0
422 -429 0
-3 -422 425 0
-425 -430 0
422 -430 0
-5 -422 427 0
-427 -432 0
422 -432 0
5 -440 0
-15 -433 0
-12 -433 0
-10 -433 0
-8 -433 0
-6 -433 0
15 12 10 8 6 433 0
433 -435 0
7 -434 0
9 -434 0
11 -434 0
13 -434 0
14 -434 0
-7 -9 -11 -13 -14 434 0
434 -435 0
-433 -434 435 0
435 -440 0
-1 -435 436 0
-436 -441 0
435 -441 0
-2 -435 437 0
-437 -442 0
435 -442 0
-3 -435 438 0
-438 -443 0
435 -443 0
-4 -435 439 0
-439 -444 0
435 -444 0
-14 -446 0
-12 -446 0
-10 -446 0
-8 -446 0
-6 -446 0
14 12 10 8 6 446 0
446 -448 0
7 -447 0
9 -447 0
11 -447 0
13 -447 0
15 -447 0
-7 -9 -11 -13 -15 447 0
447 -448 0
-446 -447 448 0
-1 -448 449 0
-449 -454 0
448 -454 0
-2 -448 450 0
-450 -455 0
448 -455 0
-3 -448 451 0
-451 -456 0
448 -456 0
-4 -448 452 0
-452 -457 0
448 -457 0
-5 -448 453 0
-453 -458 0
448 -458 0
46 47 48 49 50 59 60 61 62 68 72 73 74 76 80 85 86 87 93 94 98 99 101 102 105 111 112 114 118 120 124 125 128 131 132 137 138 144 145 146 150 152 153 154 156 163 165 166 169 172 176 178 180 182 184 189 191 195 197 198 202 205 206 208 209 215 218 221 222 224 228 232 234 235 236 241 247 248 249 250 255 256 257 258 259 268 269 270 272 276 281 282 284 285 288 294 295 298 301 302 307 309 310 311 313 320 322 324 326 328 333 336 337 339 340 346 350 352 353 354 360 361 362 363 364 373 374 376 377 380 386 388 389 390 392 399 402 403 405 406 413 414 415 416 417 426 428 429 430 432 440 441 442 443 444 454 455 456 457 458 -459 0
31 0
42 0
459 0
